% Student Parameters
%StudentNr = [1, 2, 3, 4, 5, 6, 7, 8, 9, 10, 11, 12, 13, 14, 15, 16, 17, 18, 19, 20, 21, 22, 23, 24, 25, 26, 27, 28, 29, 30, 31, 32,33, 34, 35, 36, 37];
students = 37;
Preference = array2d(1..37, 1..15, [3, 4, 1, 1, 1, 1, 2, 2, 2, 4, 4, 2, 2, 3, 2, 2,
    4, 4, 1, 1, 3, 1, 1, 1, 2, 1, 1, 1, 5, 1, 3, 4, 3, 5, 5, 5, 3, 3,
    4, 3, 4, 4, 3, 3, 3, 5, 2, 3, 1, 1, 1, 4, 4, 2, 4, 4, 4, 2, 3, 2,
    2, 2, 1, 5, 2, 3, 4, 4, 5, 4, 2, 2, 3, 5, 5, 3, 4, 3, 2, 2, 1, 3,
    3, 4, 4, 4, 2, 3, 3, 3, 4, 3, 4, 2, 2, 2, 3, 4, 3, 3, 3, 2, 3, 4,
    3, 5, 5, 2, 1, 1, 1, 5, 5, 3, 5, 5, 5, 5, 2, 5, 5, 5, 5, 1, 1, 1,
    5, 5, 5, 5, 5, 5, 5, 5, 5, 5, 3, 5, 1, 1, 1, 5, 5, 3, 5, 5, 2, 5,
    3, 5, 4, 2, 4, 4, 2, 2, 3, 4, 2, 3, 3, 4, 3, 2, 3, 5, 5, 5, 3, 3,
    3, 3, 5, 3, 5, 5, 5, 5, 5, 5, 5, 5, 5, 1, 1, 3, 5, 5, 5, 5, 5, 5,
    5, 5, 5, 4, 4, 4, 4, 2, 2, 3, 4, 4, 4, 4, 4, 3, 3, 4, 2, 2, 2, 1,
    1, 1, 2, 2, 2, 2, 1, 2, 2, 2, 2, 5, 5, 5, 5, 5, 5, 5, 5, 5, 5, 5,
    5, 5, 5, 5, 5, 5, 5, 5, 4, 4, 5, 5, 3, 5, 4, 5, 5, 3, 4, 2, 2, 4,
    5, 5, 5, 2, 2, 5, 2, 1, 3, 3, 2, 2, 2, 3, 1, 3, 2, 2, 4, 1, 2, 1,
    2, 1, 1, 2, 4, 5, 4, 3, 3, 3, 3, 5, 5, 4, 5, 3, 4, 5, 3, 5, 5, 5,
    5, 2, 1, 2, 5, 5, 3, 3, 5, 5, 5, 5, 5, 4, 2, 3, 3, 2, 4, 4, 3, 4,
    5, 4, 4, 4, 3, 4, 3, 3, 3, 2, 1, 2, 5, 3, 5, 3, 2, 3, 1, 5, 4, 3,
    4, 3, 4, 4, 4, 3, 3, 4, 3, 3, 4, 4, 5, 3, 2, 2, 2, 3, 4, 2, 5, 2,
    2, 4, 4, 1, 1, 2, 4, 2, 3, 2, 5, 1, 1, 5, 5, 4, 2, 2, 5, 4, 2, 4,
    3, 3, 4, 1, 1, 2, 3, 4, 2, 3, 3, 2, 3, 2, 4, 2, 2, 2, 1, 1, 2, 1,
    3, 3, 2, 1, 1, 1, 1, 2, 5, 4, 1, 5, 3, 5, 5, 5, 5, 5, 5, 5, 5, 1,
    5, 5, 2, 5, 1, 1, 1, 5, 5, 2, 5, 2, 3, 5, 3, 5, 2, 5, 5, 3, 3, 1,
    5, 5, 5, 5, 5, 2, 5, 5, 1, 5, 5, 5, 5, 5, 5, 5, 5, 5, 5, 5, 5, 5,
    5, 5, 4, 1, 2, 2, 1, 1, 3, 2, 1, 3, 3, 1, 4, 2, 3, 1, 3, 2, 1, 2,
    4, 3, 2, 5, 5, 4, 3, 5, 4, 1, 3, 2, 2, 5, 4, 2, 3, 2, 5, 3, 1, 2,
    3, 4, 2, 5, 1, 3, 2, 3, 4, 3, 5, 1, 4, 5, 5, 5, 3, 3, 1, 3, 3, 3,
    4, 4, 1, 5, 3, 2, 2, 1, 2, 1, 2]);
Slot = array2d(1..5, 1..37,
[2, 1, 7, 4, 4, 4, 5, 6, 4, 1, 8, 5, 1, 5, 3, 8, 10, 3, 5, 4, 8, 6, 3, 2, 6, 4, 2, 1, 1, 1, 1, 8, 1, 2, 6, 1, 2,
9, 3, 9, 5, 6, 6, 7, 10, 6, 6, 10, 6, 7, 6, 5, 9, 11, 4, 7, 5, 13, 7, 13, 12, 9, 7, 5, 9, 2, 10, 4, 12, 4, 5, 10, 7,12,
10, 4, 14, 6, 7, 9, 8, 12, 8, 7, 12, 13, 12, 12, 7, 12, 15, 9, 8, 9, 15, 8, 14, 13, 11, 9, 7, 15, 11, 15, 10, 13, 8, 6, 16, 9, 14,
16, 9, 18, 7, 8, 15, 11, 15, 15, 15, 15, 14, 16, 15, 10, 13, 17, 14, 17, 10, 17, 13, 15, 17, 14, 13, 13, 17, 17, 16, 11, 17, 9, 10, 17, 16, 16,
18, 15, 19, 19, 15, 16, 12, 17, 16, 20, 19, 16, 19, 17, 20, 16, 18, 18, 18, 20, 18, 17, 20, 18, 16, 16, 19, 20, 18, 19, 18, 19, 18, 12, 19, 20, 20
]);

% Company Parameters
companies = 15;
Disappointment = [10, 10, 10, 10, 20, 10, 5, 10, 10, 5, 5, 5, 5, 5, 5];
Lower = [5, 5, 3, 10, 10, 10, 5, 10, 10, 3, 3, 3, 3, 5, 5];
Upper = [10, 10, 6, 20, 20, 20, 10, 20, 20, 6, 6, 6, 6, 10, 10];
DailyRate = [20, 20, 10, 30, 30, 30, 10, 10, 20, 5, 5, 5, 5, 10, 10];
% Parallel = [1, 1, 1, 2, 2, 2, 2, 2, 2, 1, 1, 1, 1, 1, 1];